(set-info :source |printed by MathSAT|)
(declare-fun call__main_.avance0 () Bool)
(declare-fun call__main_.retard1.next () Bool)
(declare-fun avance0.next () Bool)
(declare-fun call__main_.nS.next () Int)
(declare-fun call__main_.ite.next () Int)
(declare-fun call__main_.flby.next () Int)
(declare-fun call__main_.ite2.next () Int)
(declare-fun call__main_.call_controleur.avance () Bool)
(declare-fun call__main_._H1_ () Bool)
(declare-fun call__main_.call_hypothese.ite3.next () Int)
(declare-fun call__main_.avance0.next () Bool)
(declare-fun call__main_.call_controleur2.flby.next () Bool)
(declare-fun call__main_.call_hypothese2.flby () Bool)
(declare-fun call__main_.call_hypothese2.flby.next () Bool)
(declare-fun call__main_.call_hypothese.flby.next () Bool)
(declare-fun call__main_.diff0 () Int)
(declare-fun nB1.next () Int)
(declare-fun flby.next () Bool)
(declare-fun call__main_.flby3 () Int)
(declare-fun call__main_.call_controleur.diff () Int)
(declare-fun call__main_.call_hypothese.c.next () Int)
(declare-fun param__S_.next () Bool)
(declare-fun call__main_.retard0 () Bool)
(declare-fun call__main_.call_hypothese.flby2 () Int)
(declare-fun param__B1_.next () Bool)
(declare-fun call__main_.call_hypothese.flby2.next () Int)
(declare-fun _OK_.next () Bool)
(declare-fun call__main_.call_controleur.retard.next () Bool)
(declare-fun call_Sofar.Sofar () Bool)
(declare-fun diff0.next () Int)
(declare-fun call__main_.ite3.next () Int)
(declare-fun diff0 () Int)
(declare-fun nB1 () Int)
(declare-fun call__main_.call_controleur2.avance.next () Bool)
(declare-fun call__main_.call_hypothese2.ok () Bool)
(declare-fun ast.next () Bool)
(declare-fun call_Sofar.flby () Bool)
(declare-fun call__main_.flby () Int)
(declare-fun call__main_.call_hypothese.ok.next () Bool)
(declare-fun avance1 () Bool)
(declare-fun call__main_.call_hypothese.ite2.next () Bool)
(declare-fun call__main_.call_hypothese2.flby2 () Int)
(declare-fun call__main_.call_controleur2.ite.next () Bool)
(declare-fun param__B0_.next () Bool)
(declare-fun nS () Int)
(declare-fun retard1 () Bool)
(declare-fun call__main_.nB1 () Int)
(declare-fun call__main_.call_controleur2.retard () Bool)
(declare-fun call__main_._H1_.next () Bool)
(declare-fun call__main_.retard1 () Bool)
(declare-fun call__main_.call_controleur.ite2.next () Bool)
(declare-fun call__main_.call_controleur2.flby () Bool)
(declare-fun call__main_.retard0.next () Bool)
(declare-fun call__main_.call_hypothese2.flby2.next () Int)
(declare-fun call__main_.call_hypothese.c () Int)
(declare-fun nB0 () Int)
(declare-fun call__main_.diff1.next () Int)
(declare-fun call__main_.call_controleur2.avance () Bool)
(declare-fun call__main_.ast () Bool)
(declare-fun avance1.next () Bool)
(declare-fun call__main_.avance1 () Bool)
(declare-fun call__main_.call_controleur.flby2 () Bool)
(declare-fun call__main_.call_controleur.flby () Bool)
(declare-fun call__main_.flby2.next () Int)
(declare-fun call__main_.call_controleur.flby.next () Bool)
(declare-fun call__main_.call_controleur.avance.next () Bool)
(declare-fun ast () Bool)
(declare-fun call__main_.call_hypothese.ite.next () Bool)
(declare-fun call__main_.call_controleur2.diff.next () Int)
(declare-fun call__main_.diff1 () Int)
(declare-fun call__main_.call_hypothese2.ite.next () Bool)
(declare-fun call_Sofar.Sofar.next () Bool)
(declare-fun call__main_.call_controleur.flby2.next () Bool)
(declare-fun call__main_.call_hypothese2.ite3.next () Int)
(declare-fun call__main_.flby3.next () Int)
(declare-fun call__main_.call_hypothese2.ok.next () Bool)
(declare-fun call__main_.call_hypothese2.ite4.next () Int)
(declare-fun flby () Bool)
(declare-fun call__main_.call_hypothese.ite4.next () Int)
(declare-fun call__main_.nB0 () Int)
(declare-fun call__main_.call_controleur.ite.next () Bool)
(declare-fun call__main_.call_controleur2.ite2.next () Bool)
(declare-fun call__main_.call_controleur2.flby2.next () Bool)
(declare-fun call__main_.call_controleur2.retard.next () Bool)
(declare-fun _OK_ () Bool)
(declare-fun call__main_.call_hypothese2.c () Int)
(declare-fun call__main_.diff0.next () Int)
(declare-fun call__main_.nB1.next () Int)
(declare-fun call__main_._H0_.next () Bool)
(declare-fun call__main_.call_hypothese2.ite2.next () Bool)
(declare-fun call__main_.call_controleur.retard () Bool)
(declare-fun call__main_._H0_ () Bool)
(declare-fun avance0 () Bool)
(declare-fun nS.next () Int)
(declare-fun call__main_.ast.next () Bool)
(declare-fun call__main_.call_hypothese2.c.next () Int)
(declare-fun call__main_.call_hypothese.ok () Bool)
(declare-fun call__main_.call_controleur2.diff () Int)
(declare-fun call_Sofar.flby.next () Bool)
(declare-fun call__main_.avance1.next () Bool)
(declare-fun diff1.next () Int)
(declare-fun call__main_.flby2 () Int)
(declare-fun retard1.next () Bool)
(declare-fun call__main_.call_hypothese.flby () Bool)
(declare-fun call__main_.call_controleur.diff.next () Int)
(declare-fun retard0.next () Bool)
(declare-fun call__main_.nB0.next () Int)
(declare-fun diff1 () Int)
(declare-fun nB0.next () Int)
(declare-fun retard0 () Bool)
(declare-fun call__main_.nS () Int)
(declare-fun call__main_.call_controleur2.flby2 () Bool)
(define-fun .def_925 () Bool (= call_Sofar.flby.next call_Sofar.Sofar.next))
(define-fun .def_922 () Bool (= call__main_.call_controleur2.flby2.next call__main_.call_controleur2.retard.next))
(define-fun .def_920 () Bool (= call__main_.call_controleur2.flby.next call__main_.call_controleur2.avance.next))
(define-fun .def_913 () Int (* (- 1) call__main_.nB1.next))
(define-fun .def_916 () Int (+ .def_913 call__main_.nS.next))
(define-fun .def_917 () Int (+ call__main_.call_controleur2.diff.next .def_916))
(define-fun .def_918 () Bool (= .def_917 0))
(define-fun .def_911 () Bool (= call__main_.call_controleur.flby2.next call__main_.call_controleur.retard.next))
(define-fun .def_909 () Bool (= call__main_.call_controleur.flby.next call__main_.call_controleur.avance.next))
(define-fun .def_902 () Int (* (- 1) call__main_.nB0.next))
(define-fun .def_905 () Int (+ .def_902 call__main_.nS.next))
(define-fun .def_906 () Int (+ call__main_.call_controleur.diff.next .def_905))
(define-fun .def_907 () Bool (= .def_906 0))
(define-fun .def_900 () Bool (= call__main_.call_hypothese2.flby2.next call__main_.call_hypothese2.c.next))
(define-fun .def_897 () Bool (= call__main_.call_hypothese2.flby.next call__main_.call_hypothese2.ok.next))
(define-fun .def_895 () Bool (= call__main_.call_hypothese.flby2.next call__main_.call_hypothese.c.next))
(define-fun .def_892 () Bool (= call__main_.call_hypothese.flby.next call__main_.call_hypothese.ok.next))
(define-fun .def_890 () Bool (= call__main_._H1_.next call__main_.call_hypothese2.ok.next))
(define-fun .def_887 () Bool (= call__main_._H0_.next call__main_.call_hypothese.ok.next))
(define-fun .def_884 () Bool (= call__main_.retard1.next call__main_.call_controleur2.retard.next))
(define-fun .def_881 () Bool (= call__main_.retard0.next call__main_.call_controleur.retard.next))
(define-fun .def_878 () Bool (= call__main_.avance1.next call__main_.call_controleur2.avance.next))
(define-fun .def_875 () Bool (= call__main_.avance0.next call__main_.call_controleur.avance.next))
(define-fun .def_872 () Bool (= call__main_.call_controleur2.diff.next call__main_.diff1.next))
(define-fun .def_870 () Bool (= call__main_.call_controleur.diff.next call__main_.diff0.next))
(define-fun .def_868 () Bool (= call__main_.flby3.next call__main_.nS.next))
(define-fun .def_866 () Bool (= call__main_.flby2.next call__main_.nB1.next))
(define-fun .def_864 () Bool (= call__main_.flby.next call__main_.nB0.next))
(define-fun .def_861 () Bool (and call__main_._H0_.next call__main_._H1_.next))
(define-fun .def_862 () Bool (= call__main_.ast.next .def_861))
(define-fun .def_857 () Bool (= ast.next call__main_.ast.next))
(define-fun .def_854 () Bool (= retard1.next call__main_.retard1.next))
(define-fun .def_850 () Bool (= retard0.next call__main_.retard0.next))
(define-fun .def_846 () Bool (= call__main_.avance1.next avance1.next))
(define-fun .def_843 () Bool (= call__main_.avance0.next avance0.next))
(define-fun .def_840 () Bool (= diff1.next call__main_.diff1.next))
(define-fun .def_836 () Bool (= diff0.next call__main_.diff0.next))
(define-fun .def_832 () Bool (= nS.next call__main_.nS.next))
(define-fun .def_828 () Bool (= nB1.next call__main_.nB1.next))
(define-fun .def_824 () Bool (= nB0.next call__main_.nB0.next))
(define-fun .def_821 () Bool (= flby.next _OK_.next))
(define-fun .def_825 () Bool (and .def_821 .def_824))
(define-fun .def_829 () Bool (and .def_825 .def_828))
(define-fun .def_833 () Bool (and .def_829 .def_832))
(define-fun .def_837 () Bool (and .def_833 .def_836))
(define-fun .def_841 () Bool (and .def_837 .def_840))
(define-fun .def_844 () Bool (and .def_841 .def_843))
(define-fun .def_847 () Bool (and .def_844 .def_846))
(define-fun .def_851 () Bool (and .def_847 .def_850))
(define-fun .def_855 () Bool (and .def_851 .def_854))
(define-fun .def_858 () Bool (and .def_855 .def_857))
(define-fun .def_863 () Bool (and .def_858 .def_862))
(define-fun .def_865 () Bool (and .def_863 .def_864))
(define-fun .def_867 () Bool (and .def_865 .def_866))
(define-fun .def_869 () Bool (and .def_867 .def_868))
(define-fun .def_871 () Bool (and .def_869 .def_870))
(define-fun .def_873 () Bool (and .def_871 .def_872))
(define-fun .def_876 () Bool (and .def_873 .def_875))
(define-fun .def_879 () Bool (and .def_876 .def_878))
(define-fun .def_882 () Bool (and .def_879 .def_881))
(define-fun .def_885 () Bool (and .def_882 .def_884))
(define-fun .def_888 () Bool (and .def_885 .def_887))
(define-fun .def_891 () Bool (and .def_888 .def_890))
(define-fun .def_893 () Bool (and .def_891 .def_892))
(define-fun .def_896 () Bool (and .def_893 .def_895))
(define-fun .def_898 () Bool (and .def_896 .def_897))
(define-fun .def_901 () Bool (and .def_898 .def_900))
(define-fun .def_908 () Bool (and .def_901 .def_907))
(define-fun .def_910 () Bool (and .def_908 .def_909))
(define-fun .def_912 () Bool (and .def_910 .def_911))
(define-fun .def_919 () Bool (and .def_912 .def_918))
(define-fun .def_921 () Bool (and .def_919 .def_920))
(define-fun .def_923 () Bool (and .def_921 .def_922))
(define-fun .def_926 () Bool (and .def_923 .def_925))
(define-fun .def_623 () Bool (= call_Sofar.flby call_Sofar.Sofar))
(define-fun .def_620 () Bool (= call__main_.call_controleur2.flby2 call__main_.call_controleur2.retard))
(define-fun .def_618 () Bool (= call__main_.call_controleur2.flby call__main_.call_controleur2.avance))
(define-fun .def_613 () Int (* (- 1) call__main_.call_controleur2.diff))
(define-fun .def_601 () Int (* (- 1) call__main_.nS))
(define-fun .def_614 () Int (+ .def_601 .def_613))
(define-fun .def_615 () Int (+ call__main_.nB1 .def_614))
(define-fun .def_616 () Bool (= .def_615 0))
(define-fun .def_608 () Bool (= call__main_.call_controleur.flby2 call__main_.call_controleur.retard))
(define-fun .def_606 () Bool (= call__main_.call_controleur.flby call__main_.call_controleur.avance))
(define-fun .def_600 () Int (* (- 1) call__main_.call_controleur.diff))
(define-fun .def_602 () Int (+ .def_601 .def_600))
(define-fun .def_603 () Int (+ call__main_.nB0 .def_602))
(define-fun .def_604 () Bool (= .def_603 0))
(define-fun .def_595 () Bool (= call__main_.call_hypothese2.flby2 call__main_.call_hypothese2.c))
(define-fun .def_592 () Bool (= call__main_.call_hypothese2.flby call__main_.call_hypothese2.ok))
(define-fun .def_590 () Bool (= call__main_.call_hypothese.flby2 call__main_.call_hypothese.c))
(define-fun .def_587 () Bool (= call__main_.call_hypothese.flby call__main_.call_hypothese.ok))
(define-fun .def_585 () Bool (= call__main_._H1_ call__main_.call_hypothese2.ok))
(define-fun .def_582 () Bool (= call__main_._H0_ call__main_.call_hypothese.ok))
(define-fun .def_579 () Bool (= call__main_.retard1 call__main_.call_controleur2.retard))
(define-fun .def_576 () Bool (= call__main_.retard0 call__main_.call_controleur.retard))
(define-fun .def_573 () Bool (= call__main_.avance1 call__main_.call_controleur2.avance))
(define-fun .def_570 () Bool (= call__main_.avance0 call__main_.call_controleur.avance))
(define-fun .def_567 () Bool (= call__main_.diff1 call__main_.call_controleur2.diff))
(define-fun .def_564 () Bool (= call__main_.diff0 call__main_.call_controleur.diff))
(define-fun .def_561 () Bool (= call__main_.flby3 call__main_.nS))
(define-fun .def_559 () Bool (= call__main_.flby2 call__main_.nB1))
(define-fun .def_557 () Bool (= call__main_.flby call__main_.nB0))
(define-fun .def_554 () Bool (and call__main_._H0_ call__main_._H1_))
(define-fun .def_555 () Bool (= call__main_.ast .def_554))
(define-fun .def_550 () Bool (= ast call__main_.ast))
(define-fun .def_547 () Bool (= retard1 call__main_.retard1))
(define-fun .def_543 () Bool (= retard0 call__main_.retard0))
(define-fun .def_539 () Bool (= avance1 call__main_.avance1))
(define-fun .def_535 () Bool (= avance0 call__main_.avance0))
(define-fun .def_531 () Bool (= diff1 call__main_.diff1))
(define-fun .def_527 () Bool (= diff0 call__main_.diff0))
(define-fun .def_523 () Bool (= nS call__main_.nS))
(define-fun .def_519 () Bool (= nB1 call__main_.nB1))
(define-fun .def_515 () Bool (= nB0 call__main_.nB0))
(define-fun .def_512 () Bool (= flby _OK_))
(define-fun .def_516 () Bool (and .def_512 .def_515))
(define-fun .def_520 () Bool (and .def_516 .def_519))
(define-fun .def_524 () Bool (and .def_520 .def_523))
(define-fun .def_528 () Bool (and .def_524 .def_527))
(define-fun .def_532 () Bool (and .def_528 .def_531))
(define-fun .def_536 () Bool (and .def_532 .def_535))
(define-fun .def_540 () Bool (and .def_536 .def_539))
(define-fun .def_544 () Bool (and .def_540 .def_543))
(define-fun .def_548 () Bool (and .def_544 .def_547))
(define-fun .def_551 () Bool (and .def_548 .def_550))
(define-fun .def_556 () Bool (and .def_551 .def_555))
(define-fun .def_558 () Bool (and .def_556 .def_557))
(define-fun .def_560 () Bool (and .def_558 .def_559))
(define-fun .def_562 () Bool (and .def_560 .def_561))
(define-fun .def_565 () Bool (and .def_562 .def_564))
(define-fun .def_568 () Bool (and .def_565 .def_567))
(define-fun .def_571 () Bool (and .def_568 .def_570))
(define-fun .def_574 () Bool (and .def_571 .def_573))
(define-fun .def_577 () Bool (and .def_574 .def_576))
(define-fun .def_580 () Bool (and .def_577 .def_579))
(define-fun .def_583 () Bool (and .def_580 .def_582))
(define-fun .def_586 () Bool (and .def_583 .def_585))
(define-fun .def_588 () Bool (and .def_586 .def_587))
(define-fun .def_591 () Bool (and .def_588 .def_590))
(define-fun .def_593 () Bool (and .def_591 .def_592))
(define-fun .def_596 () Bool (and .def_593 .def_595))
(define-fun .def_605 () Bool (and .def_596 .def_604))
(define-fun .def_607 () Bool (and .def_605 .def_606))
(define-fun .def_609 () Bool (and .def_607 .def_608))
(define-fun .def_617 () Bool (and .def_609 .def_616))
(define-fun .def_619 () Bool (and .def_617 .def_618))
(define-fun .def_621 () Bool (and .def_619 .def_620))
(define-fun .def_624 () Bool (and .def_621 .def_623))
(define-fun .def_927 () Bool (and .def_624 .def_926))
(define-fun .def_816 () Bool (and call_Sofar.Sofar ast.next))
(define-fun .def_818 () Bool (= .def_816 call_Sofar.flby.next))
(define-fun .def_813 () Bool (= call__main_.call_controleur2.ite2.next call__main_.call_controleur2.flby2.next))
(define-fun .def_810 () Bool (= call__main_.call_controleur2.ite.next call__main_.call_controleur2.flby.next))
(define-fun .def_803 () Bool (<= 0 call__main_.call_controleur2.diff.next))
(define-fun .def_804 () Bool (not .def_803))
(define-fun .def_805 () Bool (= call__main_.call_controleur2.ite2.next .def_804))
(define-fun .def_802 () Bool (not call__main_.call_controleur2.retard))
(define-fun .def_806 () Bool (or .def_802 .def_805))
(define-fun .def_797 () Bool (<= call__main_.call_controleur2.diff.next (- 10)))
(define-fun .def_799 () Bool (= .def_797 call__main_.call_controleur2.ite2.next))
(define-fun .def_800 () Bool (or call__main_.call_controleur2.retard .def_799))
(define-fun .def_793 () Bool (<= 10 call__main_.call_controleur2.diff.next))
(define-fun .def_794 () Bool (= call__main_.call_controleur2.ite.next .def_793))
(define-fun .def_795 () Bool (or call__main_.call_controleur2.avance .def_794))
(define-fun .def_788 () Bool (<= call__main_.call_controleur2.diff.next 0))
(define-fun .def_789 () Bool (not .def_788))
(define-fun .def_791 () Bool (= .def_789 call__main_.call_controleur2.ite.next))
(define-fun .def_786 () Bool (not call__main_.call_controleur2.avance))
(define-fun .def_792 () Bool (or .def_786 .def_791))
(define-fun .def_796 () Bool (and .def_792 .def_795))
(define-fun .def_801 () Bool (and .def_796 .def_800))
(define-fun .def_807 () Bool (and .def_801 .def_806))
(define-fun .def_784 () Bool (= call__main_.call_controleur.ite2.next call__main_.call_controleur.flby2.next))
(define-fun .def_781 () Bool (= call__main_.call_controleur.ite.next call__main_.call_controleur.flby.next))
(define-fun .def_774 () Bool (<= 0 call__main_.call_controleur.diff.next))
(define-fun .def_775 () Bool (not .def_774))
(define-fun .def_776 () Bool (= call__main_.call_controleur.ite2.next .def_775))
(define-fun .def_773 () Bool (not call__main_.call_controleur.retard))
(define-fun .def_777 () Bool (or .def_773 .def_776))
(define-fun .def_768 () Bool (<= call__main_.call_controleur.diff.next (- 10)))
(define-fun .def_770 () Bool (= .def_768 call__main_.call_controleur.ite2.next))
(define-fun .def_771 () Bool (or call__main_.call_controleur.retard .def_770))
(define-fun .def_764 () Bool (<= 10 call__main_.call_controleur.diff.next))
(define-fun .def_765 () Bool (= call__main_.call_controleur.ite.next .def_764))
(define-fun .def_766 () Bool (or call__main_.call_controleur.avance .def_765))
(define-fun .def_759 () Bool (<= call__main_.call_controleur.diff.next 0))
(define-fun .def_760 () Bool (not .def_759))
(define-fun .def_762 () Bool (= .def_760 call__main_.call_controleur.ite.next))
(define-fun .def_757 () Bool (not call__main_.call_controleur.avance))
(define-fun .def_763 () Bool (or .def_757 .def_762))
(define-fun .def_767 () Bool (and .def_763 .def_766))
(define-fun .def_772 () Bool (and .def_767 .def_771))
(define-fun .def_778 () Bool (and .def_772 .def_777))
(define-fun .def_755 () Bool (= call__main_.call_hypothese2.ite4.next call__main_.call_hypothese2.flby2.next))
(define-fun .def_750 () Bool (and call__main_.call_hypothese2.ite2.next call__main_.call_hypothese2.ite.next))
(define-fun .def_752 () Bool (= .def_750 call__main_.call_hypothese2.flby.next))
(define-fun .def_635 () Bool (<= 9 call__main_.call_hypothese2.c))
(define-fun .def_748 () Bool (or call__main_.call_hypothese2.ite2.next .def_635))
(define-fun .def_746 () Bool (= call__main_.call_hypothese.ite4.next call__main_.call_hypothese.flby2.next))
(define-fun .def_741 () Bool (and call__main_.call_hypothese.ite2.next call__main_.call_hypothese.ite.next))
(define-fun .def_743 () Bool (= .def_741 call__main_.call_hypothese.flby.next))
(define-fun .def_660 () Bool (<= 9 call__main_.call_hypothese.c))
(define-fun .def_739 () Bool (or call__main_.call_hypothese.ite2.next .def_660))
(define-fun .def_737 () Bool (= call__main_.ite3.next call__main_.flby3.next))
(define-fun .def_734 () Bool (= call__main_.ite2.next call__main_.flby2.next))
(define-fun .def_731 () Bool (= call__main_.ite.next call__main_.flby.next))
(define-fun .def_728 () Bool (or call__main_.retard1 call__main_.call_hypothese2.ite.next))
(define-fun .def_726 () Bool (or call__main_.retard0 call__main_.call_hypothese.ite.next))
(define-fun .def_719 () Bool (and call__main_.avance1 call__main_.avance1.next))
(define-fun .def_722 () Bool (not .def_719))
(define-fun .def_721 () Bool (= call__main_.call_hypothese2.ite3.next call__main_.call_hypothese2.ite4.next))
(define-fun .def_723 () Bool (or .def_721 .def_722))
(define-fun .def_717 () Bool (= call__main_.call_hypothese2.ite4.next 0))
(define-fun .def_720 () Bool (or .def_717 .def_719))
(define-fun .def_724 () Bool (and .def_720 .def_723))
(define-fun .def_709 () Bool (and call__main_.avance0 call__main_.avance0.next))
(define-fun .def_712 () Bool (not .def_709))
(define-fun .def_711 () Bool (= call__main_.call_hypothese.ite3.next call__main_.call_hypothese.ite4.next))
(define-fun .def_713 () Bool (or .def_711 .def_712))
(define-fun .def_707 () Bool (= call__main_.call_hypothese.ite4.next 0))
(define-fun .def_710 () Bool (or .def_707 .def_709))
(define-fun .def_714 () Bool (and .def_710 .def_713))
(define-fun .def_700 () Int (* (- 1) nB1))
(define-fun .def_701 () Int (+ nB0 .def_700))
(define-fun .def_702 () Bool (<= .def_701 40))
(define-fun .def_704 () Bool (= .def_702 flby.next))
(define-fun .def_694 () Bool (= call__main_.nS call__main_.ite3.next))
(define-fun .def_695 () Bool (or param__S_.next .def_694))
(define-fun .def_689 () Int (* (- 1) call__main_.ite3.next))
(define-fun .def_690 () Int (+ call__main_.nS .def_689))
(define-fun .def_691 () Bool (= .def_690 (- 1)))
(define-fun .def_678 () Bool (not param__S_.next))
(define-fun .def_692 () Bool (or .def_678 .def_691))
(define-fun .def_685 () Bool (not call__main_.retard0))
(define-fun .def_684 () Bool (= .def_678 call__main_.call_hypothese.ite.next))
(define-fun .def_686 () Bool (or .def_684 .def_685))
(define-fun .def_681 () Bool (not call__main_.retard1))
(define-fun .def_680 () Bool (= .def_678 call__main_.call_hypothese2.ite.next))
(define-fun .def_682 () Bool (or .def_680 .def_681))
(define-fun .def_687 () Bool (and .def_682 .def_686))
(define-fun .def_693 () Bool (and .def_687 .def_692))
(define-fun .def_696 () Bool (and .def_693 .def_695))
(define-fun .def_673 () Bool (= call__main_.nB0 call__main_.ite.next))
(define-fun .def_674 () Bool (or param__B0_.next .def_673))
(define-fun .def_668 () Int (* (- 1) call__main_.ite.next))
(define-fun .def_669 () Int (+ call__main_.nB0 .def_668))
(define-fun .def_670 () Bool (= .def_669 (- 1)))
(define-fun .def_656 () Bool (not param__B0_.next))
(define-fun .def_671 () Bool (or .def_656 .def_670))
(define-fun .def_664 () Bool (= call__main_.call_hypothese.c call__main_.call_hypothese.ite3.next))
(define-fun .def_665 () Bool (or param__B0_.next .def_664))
(define-fun .def_661 () Bool (not .def_660))
(define-fun .def_659 () Bool (= .def_656 call__main_.call_hypothese.ite2.next))
(define-fun .def_662 () Bool (or .def_659 .def_661))
(define-fun .def_652 () Int (* (- 1) call__main_.call_hypothese.ite3.next))
(define-fun .def_653 () Int (+ call__main_.call_hypothese.c .def_652))
(define-fun .def_654 () Bool (= .def_653 2))
(define-fun .def_657 () Bool (or .def_654 .def_656))
(define-fun .def_663 () Bool (and .def_657 .def_662))
(define-fun .def_666 () Bool (and .def_663 .def_665))
(define-fun .def_672 () Bool (and .def_666 .def_671))
(define-fun .def_675 () Bool (and .def_672 .def_674))
(define-fun .def_648 () Bool (= call__main_.nB1 call__main_.ite2.next))
(define-fun .def_649 () Bool (or param__B1_.next .def_648))
(define-fun .def_643 () Int (* (- 1) call__main_.ite2.next))
(define-fun .def_644 () Int (+ call__main_.nB1 .def_643))
(define-fun .def_645 () Bool (= .def_644 (- 1)))
(define-fun .def_631 () Bool (not param__B1_.next))
(define-fun .def_646 () Bool (or .def_631 .def_645))
(define-fun .def_639 () Bool (= call__main_.call_hypothese2.c call__main_.call_hypothese2.ite3.next))
(define-fun .def_640 () Bool (or param__B1_.next .def_639))
(define-fun .def_636 () Bool (not .def_635))
(define-fun .def_634 () Bool (= .def_631 call__main_.call_hypothese2.ite2.next))
(define-fun .def_637 () Bool (or .def_634 .def_636))
(define-fun .def_627 () Int (* (- 1) call__main_.call_hypothese2.ite3.next))
(define-fun .def_628 () Int (+ call__main_.call_hypothese2.c .def_627))
(define-fun .def_629 () Bool (= .def_628 2))
(define-fun .def_632 () Bool (or .def_629 .def_631))
(define-fun .def_638 () Bool (and .def_632 .def_637))
(define-fun .def_641 () Bool (and .def_638 .def_640))
(define-fun .def_647 () Bool (and .def_641 .def_646))
(define-fun .def_650 () Bool (and .def_647 .def_649))
(define-fun .def_676 () Bool (and .def_650 .def_675))
(define-fun .def_697 () Bool (and .def_676 .def_696))
(define-fun .def_705 () Bool (and .def_697 .def_704))
(define-fun .def_715 () Bool (and .def_705 .def_714))
(define-fun .def_725 () Bool (and .def_715 .def_724))
(define-fun .def_727 () Bool (and .def_725 .def_726))
(define-fun .def_729 () Bool (and .def_727 .def_728))
(define-fun .def_732 () Bool (and .def_729 .def_731))
(define-fun .def_735 () Bool (and .def_732 .def_734))
(define-fun .def_738 () Bool (and .def_735 .def_737))
(define-fun .def_740 () Bool (and .def_738 .def_739))
(define-fun .def_744 () Bool (and .def_740 .def_743))
(define-fun .def_747 () Bool (and .def_744 .def_746))
(define-fun .def_749 () Bool (and .def_747 .def_748))
(define-fun .def_753 () Bool (and .def_749 .def_752))
(define-fun .def_756 () Bool (and .def_753 .def_755))
(define-fun .def_779 () Bool (and .def_756 .def_778))
(define-fun .def_782 () Bool (and .def_779 .def_781))
(define-fun .def_785 () Bool (and .def_782 .def_784))
(define-fun .def_808 () Bool (and .def_785 .def_807))
(define-fun .def_811 () Bool (and .def_808 .def_810))
(define-fun .def_814 () Bool (and .def_811 .def_813))
(define-fun .def_819 () Bool (and .def_814 .def_818))
(define-fun .def_928 () Bool (and .def_819 .def_927))
(assert .def_928)
